;; Original file: term_141.smt2
(set-logic HORN)
(declare-fun starexecinv1 (Real Real Real) Bool)

(assert (forall ((|gh0prime| Real) (|XXX0prime| Real) (|XXX1prime| Real))
  (let ((a!1 (> |gh0prime| (* (+ 0 (- 1)) |XXX0prime|)))
        (a!2 (> |gh0prime| (* (+ 0 (- 1)) |XXX1prime|))))
    (=> (and true
             (> |gh0prime| |XXX0prime|)
             (> |gh0prime| |XXX1prime|)
             a!1
             a!2)
        (starexecinv1 |XXX0prime| |XXX1prime| |gh0prime|)))))
(assert (forall ((|XXX0| Real)
         (|XXX1| Real)
         (gh0 Real)
         (|XXX1prime| Real)
         (|XXX0prime| Real)
         (|gh0prime| Real))
  (let ((a!1 (and (< |XXX1| |XXX0|)
                  (= |XXX1prime| (- |XXX1| (+ 0 1)))))
        (a!2 (and (>= |XXX1| |XXX0|)
                  (= |XXX0prime| (- |XXX0| (+ 0 1))))))
  (let ((a!3 (and (starexecinv1 |XXX0| |XXX1| gh0)
                  (> |XXX0| (+ 0 0))
                  (> |XXX1| (+ 0 0))
                  (not (= |XXX0| |XXX1|))
                  (or a!1 a!2)
                  (= |gh0prime| (- gh0 (+ 0 1))))))
    (=> a!3 (starexecinv1 |XXX0prime| |XXX1prime| |gh0prime|))))))
(assert (forall ((|XXX0| Real) (|XXX1| Real) (gh0 Real) )
  (=> (and (starexecinv1 |XXX0| |XXX1| gh0)
           (> |XXX0| (+ 0 0))
           (> |XXX1| (+ 0 0))
           (not (= |XXX0| |XXX1|))
           (< gh0 (+ 0 0)))
      false)))
(check-sat)
